data/hard_5.dzn
num_nodi = 9;
ufficio_postale = 9;
dim_borsa = 20;
max_step = 36;
elenco_lettere = [13, 20, 10, 6, 15, 20, 15, 18, 0];
distanze = [|0, 11, 12, 2, 3, 8, 7, 4, 5
|11, 0, 19, 14, 11, 15, 6, 7, 10
|5, 25, 0, 1, 9, 13, 7, 5, 14
|17, 5, 14, 0, 24, 24, 16, 5, 2
|21, 9, 5, 9, 0, 8, 14, 23, 18
|3, 10, 10, 1, 10, 0, 15, 7, 4
|16, 9, 19, 14, 21, 22, 0, 22, 24
|4, 18, 21, 13, 3, 4, 6, 0, 20
|9, 5, 12, 8, 7, 8, 20, 2, 0
|];
