data/hard_5.lp
node(1..9).

ufficio_postale(9).

dim_borsa(20).

time(1..36).

lettere(1,13).
lettere(2,20).
lettere(3,10).
lettere(4,6).
lettere(5,15).
lettere(6,20).
lettere(7,15).
lettere(8,18).
lettere(9,0).

costo_arco(1, 1, 0).
costo_arco(1, 2, 11).
costo_arco(1, 3, 12).
costo_arco(1, 4, 2).
costo_arco(1, 5, 3).
costo_arco(1, 6, 8).
costo_arco(1, 7, 7).
costo_arco(1, 8, 4).
costo_arco(1, 9, 5).

costo_arco(2, 1, 11).
costo_arco(2, 2, 0).
costo_arco(2, 3, 19).
costo_arco(2, 4, 14).
costo_arco(2, 5, 11).
costo_arco(2, 6, 15).
costo_arco(2, 7, 6).
costo_arco(2, 8, 7).
costo_arco(2, 9, 10).

costo_arco(3, 1, 5).
costo_arco(3, 2, 25).
costo_arco(3, 3, 0).
costo_arco(3, 4, 1).
costo_arco(3, 5, 9).
costo_arco(3, 6, 13).
costo_arco(3, 7, 7).
costo_arco(3, 8, 5).
costo_arco(3, 9, 14).

costo_arco(4, 1, 17).
costo_arco(4, 2, 5).
costo_arco(4, 3, 14).
costo_arco(4, 4, 0).
costo_arco(4, 5, 24).
costo_arco(4, 6, 24).
costo_arco(4, 7, 16).
costo_arco(4, 8, 5).
costo_arco(4, 9, 2).

costo_arco(5, 1, 21).
costo_arco(5, 2, 9).
costo_arco(5, 3, 5).
costo_arco(5, 4, 9).
costo_arco(5, 5, 0).
costo_arco(5, 6, 8).
costo_arco(5, 7, 14).
costo_arco(5, 8, 23).
costo_arco(5, 9, 18).

costo_arco(6, 1, 3).
costo_arco(6, 2, 10).
costo_arco(6, 3, 10).
costo_arco(6, 4, 1).
costo_arco(6, 5, 10).
costo_arco(6, 6, 0).
costo_arco(6, 7, 15).
costo_arco(6, 8, 7).
costo_arco(6, 9, 4).

costo_arco(7, 1, 16).
costo_arco(7, 2, 9).
costo_arco(7, 3, 19).
costo_arco(7, 4, 14).
costo_arco(7, 5, 21).
costo_arco(7, 6, 22).
costo_arco(7, 7, 0).
costo_arco(7, 8, 22).
costo_arco(7, 9, 24).

costo_arco(8, 1, 4).
costo_arco(8, 2, 18).
costo_arco(8, 3, 21).
costo_arco(8, 4, 13).
costo_arco(8, 5, 3).
costo_arco(8, 6, 4).
costo_arco(8, 7, 6).
costo_arco(8, 8, 0).
costo_arco(8, 9, 20).

costo_arco(9, 1, 9).
costo_arco(9, 2, 5).
costo_arco(9, 3, 12).
costo_arco(9, 4, 8).
costo_arco(9, 5, 7).
costo_arco(9, 6, 8).
costo_arco(9, 7, 20).
costo_arco(9, 8, 2).
costo_arco(9, 9, 0).

